95
0 42 38 92 74 65 73 49 19 64 
8 43 21 10 34 39 41 57 54 85 
61 56 67 37 32 45 47 12 69 23 
53 15 7 14 30 5 2 66 93 51 
87 82 77 35 59 22 84 4 90 62 
46 48 26 1 50 79 3 80 72 40 
86 6 58 16 33 75 81 60 44 9 
31 78 63 20 52 94 71 29 91 27 
70 36 88 28 25 18 76 89 83 17 
55 68 11 24 13 
